proyfinal/src/viki/013/experimentInOfficeAgust.take6.output/807e7761-4fe3-4e77-a2d8-f25737e94280.als.out
Reading from standard input... Use '--help' for help.
============================[ Problem Statistics ]=============================
|                                                                             |
|  Number of variables:         87638                                         |
|  Number of clauses:          161767                                         |
|  Parse time:                   0.04 s                                       |
|                                                                             |
============================[ Search Statistics ]==============================
| Conflicts |          ORIGINAL         |          LEARNT          | Progress |
|           |    Vars  Clauses Literals |    Limit  Clauses Lit/Cl |          |
===============================================================================
|       100 |   63869   110505   276259 |    40518      100     12 | 27.122 % |
|       250 |   63869   110505   276259 |    44570      250     29 | 27.122 % |
|       475 |   63869   110505   276259 |    49027      475     51 | 27.122 % |
|       812 |   52364    77280   194465 |    53930      807     51 | 40.250 % |
|      1318 |   52278    76930   193649 |    59323     1292     47 | 40.348 % |
|      2077 |   52209    76847   193411 |    65255     2047     57 | 40.427 % |
|      3216 |   51789    75055   189058 |    71780     3169    104 | 40.906 % |
|      4924 |   51569    74201   186999 |    78959     4858     98 | 41.157 % |
|      7486 |   50774    71763   180952 |    86855     6834     84 | 42.064 % |
|     11330 |   50552    70500   177908 |    95540     9487     72 | 42.317 % |
|     17096 |   50300    69869   176407 |   105094    15215     65 | 42.605 % |
===============================================================================
restarts              : 77
conflicts             : 21670          (7005 /sec)
decisions             : 72435          (0.00 % random) (23417 /sec)
propagations          : 30797772       (9956329 /sec)
conflict literals     : 1354138        (45.47 % deleted)
Memory used           : 32.75 MB
CPU time              : 3.09329 s

UNSATISFIABLE
